networks/zoo_62_186/zoo_62_186-lower.txt
Number of groups: 22
Flow 1: {1 4 0} {4 3 0} {3 14 0} {14 20 0} {20 11 0} {11 42 0} 
Flow 2: {11 12 0} {12 13 0} {13 44 0} 
Flow 3: {14 21 0} {21 19 0} {19 18 0} {18 49 0} 
Flow 4: {20 51 0} 
Flow 5: {3 4 0} {4 35 0} 
Flow 6: {3 23 0} {23 22 0} {31 9 0} {9 40 0} 
Flow 6: {22 31 0} Flow 8: {12 43 0} 
Flow 10: {9 10 0} {10 17 0} {17 48 0} 
Flow 13: {22 53 0} 
Flow 14: {23 54 0} 
Flow 15: {4 1 0} {1 8 0} {8 7 0} {7 26 0} {26 30 0} {30 61 0} 
Flow 19: {6 5 0} {5 16 0} {16 15 0} {20 14 0} {14 3 0} {15 20 0} Flow 20: {6 17 0} {17 10 0} {10 9 0} Flow 25: {13 18 0} Flow 27: {21 52 0} 
Flow 28: {9 31 0} {31 22 0} Flow 29: {22 23 0} Flow 30: {5 30 0} {30 26 0} {26 57 0} 
Flow 32: {7 8 0} {8 1 0} Flow 33: {30 5 0} {5 6 0} Flow 45: {23 3 0} Flow 47: {17 6 0} Flow 59: {11 20 0} Flow 60: {12 11 0} Flow 61: {8 39 0} 
Flow 65: {20 15 0} {15 16 0} {16 5 0} Flow 73: {13 12 0} Flow 80: {18 19 0} {19 21 0} Flow 114: {21 14 0} Flow 115: {5 36 0} 
Flow 115: {18 13 0} Flow 118: {10 41 0} 
Flow 122: {14 45 0} 
Flow 129: {30 29 0} {29 60 0} 
Flow 131: {31 62 0} 
Flow 132: {1 2 0} {2 33 0} 
Flow 135: {7 38 0} 
Flow 148: {2 24 0} {24 55 0} 
Flow 168: {26 7 0} Flow 182: {27 26 0} Time taken running everything: 0 seconds
