networks/zoo_62_186/zoo_62_186-lower.sol
<?xml version = "1.0" encoding="UTF-8" standalone="yes"?>
<CPLEXSolution version="1.2">
 <header
   problemName="networks/zoo_62_186/zoo_62_186-lower.lp"
   solutionName="incumbent"
   solutionIndex="-1"
   objectiveValue="22"
   solutionTypeValue="3"
   solutionTypeString="primal"
   solutionStatusValue="101"
   solutionStatusString="integer optimal solution"
   solutionMethodString="mip"
   primalFeasible="1"
   dualFeasible="1"
   MIPNodes="0"
   MIPIterations="0"
   writeLevel="3"/>
 <quality
   epInt="1.0000000000000001e-05"
   epRHS="9.9999999999999995e-07"
   maxIntInfeas="0"
   maxPrimalInfeas="0"
   maxX="1"
   maxSlack="1"/>
 <variables>
  <variable name="Y(1,11)" index="10" value="1"/>
  <variable name="Y(2,13)" index="63" value="1"/>
  <variable name="Y(3,18)" index="119" value="1"/>
  <variable name="Y(4,20)" index="172" value="1"/>
  <variable name="Y(5,4)" index="207" value="1"/>
  <variable name="Y(6,9)" index="263" value="1"/>
  <variable name="Y(8,12)" index="368" value="1"/>
  <variable name="Y(10,17)" index="475" value="1"/>
  <variable name="Y(13,22)" index="633" value="1"/>
  <variable name="Y(14,23)" index="685" value="1"/>
  <variable name="Y(15,30)" index="741" value="1"/>
  <variable name="Y(27,21)" index="1346" value="1"/>
  <variable name="Y(30,26)" index="1503" value="1"/>
  <variable name="Y(61,8)" index="3067" value="1"/>
  <variable name="Y(115,5)" index="5818" value="1"/>
  <variable name="Y(118,10)" index="5976" value="1"/>
  <variable name="Y(122,14)" index="6184" value="1"/>
  <variable name="Y(129,29)" index="6554" value="1"/>
  <variable name="Y(131,31)" index="6658" value="1"/>
  <variable name="Y(132,2)" index="6682" value="1"/>
  <variable name="Y(135,7)" index="6840" value="1"/>
  <variable name="Y(148,24)" index="7520" value="1"/>
  <variable name="X(1,2,132)" index="9617" value="1"/>
  <variable name="X(1,4,1)" index="9672" value="1"/>
  <variable name="X(1,8,15)" index="9872" value="1"/>
  <variable name="X(2,24,148)" index="10191" value="1"/>
  <variable name="X(2,33,132)" index="10361" value="1"/>
  <variable name="X(3,4,5)" index="10420" value="1"/>
  <variable name="X(3,14,1)" index="10602" value="1"/>
  <variable name="X(3,23,6)" index="10793" value="1"/>
  <variable name="X(4,1,15)" index="10988" value="1"/>
  <variable name="X(4,3,1)" index="11160" value="1"/>
  <variable name="X(4,35,5)" index="11350" value="1"/>
  <variable name="X(5,6,33)" index="11564" value="1"/>
  <variable name="X(5,16,19)" index="11736" value="1"/>
  <variable name="X(5,30,30)" index="11933" value="1"/>
  <variable name="X(5,36,115)" index="12204" value="1"/>
  <variable name="X(6,5,19)" index="12294" value="1"/>
  <variable name="X(6,17,20)" index="12481" value="1"/>
  <variable name="X(7,8,32)" index="12679" value="1"/>
  <variable name="X(7,26,15)" index="12848" value="1"/>
  <variable name="X(7,38,135)" index="13154" value="1"/>
  <variable name="X(8,1,32)" index="13237" value="1"/>
  <variable name="X(8,7,15)" index="13406" value="1"/>
  <variable name="X(8,39,61)" index="13638" value="1"/>
  <variable name="X(9,10,10)" index="13773" value="1"/>
  <variable name="X(9,31,28)" index="13977" value="1"/>
  <variable name="X(9,40,6)" index="14141" value="1"/>
  <variable name="X(10,9,20)" index="14341" value="1"/>
  <variable name="X(10,17,10)" index="14517" value="1"/>
  <variable name="X(10,41,118)" index="14811" value="1"/>
  <variable name="X(11,12,2)" index="14881" value="1"/>
  <variable name="X(11,20,59)" index="15124" value="1"/>
  <variable name="X(11,42,1)" index="15252" value="1"/>
  <variable name="X(12,11,60)" index="15497" value="1"/>
  <variable name="X(12,13,2)" index="15625" value="1"/>
  <variable name="X(12,43,8)" index="15817" value="1"/>
  <variable name="X(13,12,73)" index="16068" value="1"/>
  <variable name="X(13,18,25)" index="16206" value="1"/>
  <variable name="X(13,44,2)" index="16369" value="1"/>
  <variable name="X(14,3,19)" index="16572" value="1"/>
  <variable name="X(14,20,1)" index="16740" value="1"/>
  <variable name="X(14,21,3)" index="16928" value="1"/>
  <variable name="X(14,45,122)" index="17233" value="1"/>
  <variable name="X(15,16,65)" index="17362" value="1"/>
  <variable name="X(15,20,19)" index="17502" value="1"/>
  <variable name="X(16,5,65)" index="17734" value="1"/>
  <variable name="X(16,15,19)" index="17874" value="1"/>
  <variable name="X(17,6,47)" index="18088" value="1"/>
  <variable name="X(17,10,20)" index="18247" value="1"/>
  <variable name="X(17,48,10)" index="18423" value="1"/>
  <variable name="X(18,13,115)" index="18714" value="1"/>
  <variable name="X(18,19,80)" index="18865" value="1"/>
  <variable name="X(18,49,3)" index="18974" value="1"/>
  <variable name="X(19,18,3)" index="19160" value="1"/>
  <variable name="X(19,21,80)" index="19423" value="1"/>
  <variable name="X(20,11,1)" index="19530" value="1"/>
  <variable name="X(20,14,19)" index="19734" value="1"/>
  <variable name="X(20,15,65)" index="19966" value="1"/>
  <variable name="X(20,51,4)" index="20091" value="1"/>
  <variable name="X(21,14,114)" index="20387" value="1"/>
  <variable name="X(21,19,3)" index="20462" value="1"/>
  <variable name="X(21,52,27)" index="20672" value="1"/>
  <variable name="X(22,23,29)" index="20860" value="1"/>
  <variable name="X(22,31,6)" index="21023" value="1"/>
  <variable name="X(22,53,13)" index="21216" value="1"/>
  <variable name="X(23,3,45)" index="21434" value="1"/>
  <variable name="X(23,22,6)" index="21581" value="1"/>
  <variable name="X(23,54,14)" index="21775" value="1"/>
  <variable name="X(24,55,148)" index="22095" value="1"/>
  <variable name="X(26,7,168)" index="22301" value="1"/>
  <variable name="X(26,30,15)" index="22334" value="1"/>
  <variable name="X(26,57,30)" index="22535" value="1"/>
  <variable name="X(27,26,182)" index="22873" value="1"/>
  <variable name="X(29,60,129)" index="23006" value="1"/>
  <variable name="X(30,5,33)" index="23096" value="1"/>
  <variable name="X(30,26,30)" index="23279" value="1"/>
  <variable name="X(30,29,129)" index="23564" value="1"/>
  <variable name="X(30,61,15)" index="23636" value="1"/>
  <variable name="X(31,9,6)" index="23813" value="1"/>
  <variable name="X(31,22,28)" index="24021" value="1"/>
  <variable name="X(31,62,131)" index="24310" value="1"/>
 </variables>
</CPLEXSolution>
